p cnf 25 153
-19 -17 -20 16 18 0
-19 20 -17 18 -16 0
6 -10 -8 -9 -7 0
12 -13 -14 -15 11 0
-20 16 19 17 18 0
2 -3 -5 -1 -4 0
-11 -15 12 -13 14 0
13 -14 -11 -12 15 0
16 6 -5 23 15 0
25 21 24 22 -23 0
-22 -24 -21 -23 -25 0
10 -8 -7 6 9 0
-8 -7 -9 -10 -6 0
20 18 16 -17 19 0
-25 24 23 -22 21 0
20 17 16 19 18 0
15 -12 -11 -13 14 0
23 25 -21 24 -22 0
-20 -12 8 24 1 0
-16 -17 -19 -20 -18 0
-20 -19 -16 -17 18 0
-24 -25 -23 21 22 0
7 10 -9 8 -6 0
1 -3 2 5 4 0
15 12 11 -14 13 0
-1 5 2 3 -4 0
22 24 -23 -25 21 0
24 -22 -23 25 -21 0
-7 6 9 8 -10 0
23 -21 -24 -22 25 0
2 4 5 3 1 0
-17 21 5 -7 -14 0
-23 24 -25 21 -22 0
-1 -5 -2 3 4 0
24 -21 -23 22 -25 0
17 -19 -16 20 18 0
4 3 5 -2 -1 0
-7 9 -8 -10 -6 0
14 11 -13 -15 -12 0
-11 -14 15 -13 12 0
11 19 -25 7 -4 0
-15 12 11 13 14 0
8 -7 9 6 10 0
-2 -4 5 3 1 0
18 20 -19 16 17 0
1 -3 4 -2 5 0
2 1 -5 -3 -4 0
-8 -6 10 -9 -7 0
14 13 12 -11 15 0
-16 18 20 17 19 0
7 -8 6 9 -10 0
6 10 7 -8 -9 0
-12 -13 11 15 -14 0
4 -2 -3 5 -1 0
-19 -18 16 20 -17 0
9 10 6 7 8 0
22 -14 -9 -16 -4 0
-5 3 1 -4 2 0
-13 14 -11 -12 -15 0
23 -21 25 22 24 0
-16 -20 19 -18 17 0
24 -22 -25 -23 -21 0
1 -3 -4 -2 5 0
16 19 -17 20 -18 0
-11 -12 -14 15 -13 0
4 3 5 -2 1 0
-9 -8 6 -7 10 0
10 6 -8 7 9 0
22 24 -25 23 21 0
9 -6 7 -8 10 0
-14 -13 12 -11 -15 0
-21 -24 25 -22 -23 0
-1 -5 -4 -3 -2 0
-15 12 -11 13 14 0
20 -18 -16 17 -19 0
-9 6 10 8 -7 0
-6 9 7 -10 8 0
-16 -24 13 -6 2 0
-15 12 -14 13 -11 0
-12 -13 -14 -11 -15 0
5 -4 3 1 2 0
-23 22 -25 -24 -21 0
10 7 -6 -9 -8 0
8 -6 10 -7 -9 0
-9 -10 7 -6 8 0
-19 -16 18 17 -20 0
17 19 20 -18 -16 0
16 -20 17 18 -19 0
19 20 18 -17 -16 0
23 21 -22 25 24 0
14 -11 15 -12 13 0
1 2 4 3 -5 0
-3 -2 -4 -5 1 0
15 12 11 -13 14 0
-19 -18 20 17 16 0
-3 2 -1 -5 4 0
-13 11 -14 15 12 0
-17 19 16 18 -20 0
5 1 2 -4 -3 0
22 -24 -21 23 25 0
17 -19 16 -20 -18 0
22 -23 -21 25 24 0
1 4 -3 2 -5 0
-1 -4 -5 3 2 0
8 -10 6 7 -9 0
-17 -18 -19 16 -20 0
19 17 16 -18 20 0
7 8 -6 9 10 0
8 -24 -19 4 11 0
-3 -1 2 5 4 0
16 -20 -18 17 19 0
3 -1 4 -5 2 0
23 -11 -6 16 3 0
22 25 -23 21 -24 0
-1 -5 -2 4 -3 0
-22 23 -25 -21 -24 0
-7 10 -6 9 8 0
6 -10 -8 -7 9 0
25 -24 -21 22 -23 0
-17 -16 -20 19 18 0
22 -25 23 -21 24 0
-10 -9 -7 -6 8 0
-20 16 -17 -18 19 0
14 11 -13 -15 12 0
-11 -12 14 -15 13 0
-23 -22 21 25 -24 0
-12 13 -14 11 -15 0
-5 -2 -3 1 4 0
-24 21 23 22 -25 0
-24 22 23 21 25 0
11 25 -10 1 -18 0
-14 15 -12 11 13 0
-12 11 14 -13 15 0
-3 -4 -2 5 -1 0
-24 21 -22 25 23 0
-22 -23 -24 -25 21 0
-10 9 -6 -8 7 0
-1 -4 5 -2 3 0
6 8 -10 -9 -7 0
9 -6 -7 8 -10 0
-14 12 15 -11 13 0
24 -22 -25 23 -21 0
12 -15 11 -14 13 0
-1 -3 2 5 -4 0
-17 9 22 -5 15 0
11 14 -12 13 -15 0
14 11 12 13 15 0
24 25 -22 -23 21 0
4 1 -5 -2 3 0
-6 -9 -10 7 -8 0
10 8 -9 6 7 0
-12 -15 13 -14 -11 0
18 17 -16 -20 19 0
